Route #1: 42 55 3 23 98 4 30 38
Route #2: 61 35 59 89 32 73 16 20
Route #3: 39 50 6 81 70 65 80 95
Route #4: 47 68 10 41 18 86 88
Route #5: 94 64 105 8 36 91 69 17 2
Route #6: 54 85 14 58 48 83 77 67
Route #7: 57 63 31 40 13 21 99 11
Route #8: 34 74 49 71 27 37 79
Route #9: 103 28 93 97 46 66 9
Route #10: 24 7 75 84 19 56 25
Route #11: 44 15 76 87 60 51 100
Route #12: 96 82 29 72 43 101 53 45
Route #13: 5 92 102 1 12 104 90 78
Route #14: 22 52 26 62 33
Cost 27223.965487978712